2018/problems/formulublad/data/secret/knapsack-18.in
81 273
267 223979
191 320777
50 330066
168 752184
182 469523
141 151430
120 661909
15 493750
75 541150
100 318548
12 446450
181 751083
262 74075
65 392358
41 307529
244 674235
109 173634
33 861095
164 683915
261 570224
164 643871
187 246291
29 47800
83 617894
32 170301
163 679020
43 320886
221 213801
211 129948
179 915721
193 897186
226 232505
255 574471
214 707925
107 477015
163 437578
82 86692
264 371949
260 410997
10 766018
104 222873
73 5190
150 267035
36 154404
135 293153
206 355221
47 121113
75 659867
264 457950
196 320712
57 951136
20 738022
105 483297
52 161940
146 719023
91 685109
57 168535
142 368230
56 593272
256 715323
21 377730
245 749068
112 281434
113 740509
103 501488
1 636700
5 981680
7 363889
68 523167
95 821789
266 231396
20 837854
46 51563
31 857612
191 139517
248 313588
235 943354
58 536442
212 677615
215 282102
183 98276
