2018/problems/formulublad/data/secret/knapsack-18.ans
13 8619465
7 10 14 17 39 50 51 60 65 66 67 71 73 
